37 38
27
3 3 19 11
3 4 19 7
3 5 16 4
3 6 30 19
3 7 13 31
3 8 23 0
3 9 19 29
3 11 27 27
3 12 16 26
3 13 30 25
3 14 24 14
3 17 16 9
3 18 30 1
3 21 27 6
4 3 19 4
4 4 12 27
4 5 26 1
4 6 33 32
4 10 33 0
4 22 33 10
4 24 12 3
5 3 12 0
5 4 17 0
5 6 22 8
5 10 22 28
5 14 19 14
12 37 0 1
